c description: Random 3-CNF over 11 variables and 33 clauses
p cnf 11 33
-5 -10 11 0
-7 8 10 0
5 7 -8 0
-3 8 10 0
1 2 3 0
-1 6 8 0
-4 5 8 0
1 7 -9 0
1 2 -7 0
1 -2 -4 0
-4 6 -9 0
-3 5 -8 0
-5 -7 -10 0
-3 4 8 0
-2 -4 -7 0
-1 -2 4 0
-3 -9 11 0
-6 -7 11 0
-1 7 -8 0
-1 6 -8 0
-2 -9 -11 0
-4 10 -11 0
-1 -4 -11 0
6 8 -10 0
6 -9 -11 0
4 7 -10 0
-1 6 -7 0
-4 -7 10 0
-1 5 -10 0
1 3 5 0
-4 6 -7 0
2 -4 -7 0
2 5 6 0